WARNING: for repeatability, setting FPU to use double precision
============================[ Problem Statistics ]=============================
|                                                                             |
|  Number of variables:           100                                         |
|  Number of clauses:             449                                         |
|  Parse time:                   0.00 s                                       |
|  Eliminated clauses:           0.00 Mb                                      |
|  Simplification time:          0.00 s                                       |
|                                                                             |
============================[ Search Statistics ]==============================
| Conflicts |          ORIGINAL         |          LEARNT          | Progress |
|           |    Vars  Clauses Literals |    Limit  Clauses Lit/Cl |          |
===============================================================================
|       100 |      98      447     1351 |      163      100      7 |  0.010 % |
|       250 |      98      447     1351 |      180      162      6 |  0.030 % |
===============================================================================
restarts              : 3
conflicts             : 267            (211401 /sec)
decisions             : 333            (0.00 % random) (263658 /sec)
propagations          : 6191           (4901821 /sec)
conflict literals     : 1700           (20.71 % deleted)
Memory used           : 13.00 MB
CPU time              : 0.001263 s

SATISFIABLE
